c description: Singleton clauses: 1 positive and 2 negative
c generator: CNFgen (0.9.1)
c copyright: (C) 2012-2022 Massimo Lauria <massimo.lauria@uniroma1.it>
c url: https://massimolauria.net/cnfgen
c command line: cnfgen -o thing.cnf -of dimacs and 1 2
c
p cnf 3 3
1 0
-2 0
-3 0
